certificates/rado_a10_c158_N21.cnf
c Rad2 upper bound instance: x1 + 10*x2 - x3 = 158, interval [1,21]
p cnf 21 88
1 3 16 0
-1 -3 -16 0
1 13 17 0
-1 -13 -17 0
2 4 16 0
-2 -4 -16 0
2 14 17 0
-2 -14 -17 0
3 5 16 0
-3 -5 -16 0
3 15 17 0
-3 -15 -17 0
4 6 16 0
-4 -6 -16 0
4 16 17 0
-4 -16 -17 0
5 7 16 0
-5 -7 -16 0
5 17 0
-5 -17 0
6 8 16 0
-6 -8 -16 0
6 17 18 0
-6 -17 -18 0
7 9 16 0
-7 -9 -16 0
7 17 19 0
-7 -17 -19 0
8 10 16 0
-8 -10 -16 0
8 17 20 0
-8 -17 -20 0
1 9 15 0
-1 -9 -15 0
9 11 16 0
-9 -11 -16 0
9 17 21 0
-9 -17 -21 0
2 10 15 0
-2 -10 -15 0
10 12 16 0
-10 -12 -16 0
3 11 15 0
-3 -11 -15 0
11 13 16 0
-11 -13 -16 0
4 12 15 0
-4 -12 -15 0
12 14 16 0
-12 -14 -16 0
5 13 15 0
-5 -13 -15 0
13 15 16 0
-13 -15 -16 0
6 14 15 0
-6 -14 -15 0
14 16 0
-14 -16 0
7 15 0
-7 -15 0
15 16 17 0
-15 -16 -17 0
8 15 16 0
-8 -15 -16 0
16 18 0
-16 -18 0
9 15 17 0
-9 -15 -17 0
16 17 19 0
-16 -17 -19 0
10 15 18 0
-10 -15 -18 0
16 18 20 0
-16 -18 -20 0
1 14 19 0
-1 -14 -19 0
11 15 19 0
-11 -15 -19 0
16 19 21 0
-16 -19 -21 0
2 14 20 0
-2 -14 -20 0
12 15 20 0
-12 -15 -20 0
3 14 21 0
-3 -14 -21 0
13 15 21 0
-13 -15 -21 0
