certificates/rado_a10_c158_N21.drat
-19 -21 0
d -19 -16 -21 0
16 -21 0
-17 -21 0
-21 0
-16 0
14 0
18 0
19 0
-1 0
3 0
-17 0
5 0
9 0
4 0
15 0
13 0
0
